(set-logic QF_S)
(declare-fun var0 () String)
(declare-fun var1 () Int)
(declare-fun var2 () String)
(declare-fun var3 () String)
(declare-fun var4 () String)
(declare-fun var5 () Int)
(declare-fun var6 () Int)
(declare-fun var7 () Int)
(assert (str.contains (str.substr (str.at var0 var1) (str.to.int var2) (str.to.int var3)) (str.at var4 var5)))
(assert (> (str.to.int var2) (str.indexof var0 var2 var6)))
(assert (<= (str.indexof var4 var3 var7) (str.indexof var4 "Un}7" var5)))
(assert (> (str.len var3) (str.len (str.substr var4 10 52))))
(check-sat)